(set-logic QF_LRA)
(declare-fun X0 () Real )
(declare-fun Y0 () Real )
(declare-fun X1 () Real )
(declare-fun Y1 () Real )
(declare-fun X2 () Real )
(declare-fun Y2 () Real )
(declare-fun X3 () Real )
(declare-fun Y3 () Real )
(declare-fun X4 () Real )
(declare-fun Y4 () Real )
(declare-fun X5 () Real )
(declare-fun Y5 () Real )
(declare-fun Z () Real )
(assert ( and  
( or ( <= ( + X0 43 ) X1 )  ( <= ( + X1 54 ) X0 )  ( <= ( + Y0 95 ) Y1 )  ( <= ( + Y1 25 ) Y0 )  )
( or ( <= ( + X0 43 ) X2 )  ( <= ( + X2 70 ) X0 )  ( <= ( + Y0 95 ) Y2 )  ( <= ( + Y2 71 ) Y0 )  )
( or ( <= ( + X0 43 ) X3 )  ( <= ( + X3 64 ) X0 )  ( <= ( + Y0 95 ) Y3 )  ( <= ( + Y3 86 ) Y0 )  )
( or ( <= ( + X0 43 ) X4 )  ( <= ( + X4 71 ) X0 )  ( <= ( + Y0 95 ) Y4 )  ( <= ( + Y4 20 ) Y0 )  )
( or ( <= ( + X0 43 ) X5 )  ( <= ( + X5 81 ) X0 )  ( <= ( + Y0 95 ) Y5 )  ( <= ( + Y5 30 ) Y0 )  )
( or ( <= ( + X1 54 ) X2 )  ( <= ( + X2 70 ) X1 )  ( <= ( + Y1 25 ) Y2 )  ( <= ( + Y2 71 ) Y1 )  )
( or ( <= ( + X1 54 ) X3 )  ( <= ( + X3 64 ) X1 )  ( <= ( + Y1 25 ) Y3 )  ( <= ( + Y3 86 ) Y1 )  )
( or ( <= ( + X1 54 ) X4 )  ( <= ( + X4 71 ) X1 )  ( <= ( + Y1 25 ) Y4 )  ( <= ( + Y4 20 ) Y1 )  )
( or ( <= ( + X1 54 ) X5 )  ( <= ( + X5 81 ) X1 )  ( <= ( + Y1 25 ) Y5 )  ( <= ( + Y5 30 ) Y1 )  )
( or ( <= ( + X2 70 ) X3 )  ( <= ( + X3 64 ) X2 )  ( <= ( + Y2 71 ) Y3 )  ( <= ( + Y3 86 ) Y2 )  )
( or ( <= ( + X2 70 ) X4 )  ( <= ( + X4 71 ) X2 )  ( <= ( + Y2 71 ) Y4 )  ( <= ( + Y4 20 ) Y2 )  )
( or ( <= ( + X2 70 ) X5 )  ( <= ( + X5 81 ) X2 )  ( <= ( + Y2 71 ) Y5 )  ( <= ( + Y5 30 ) Y2 )  )
( or ( <= ( + X3 64 ) X4 )  ( <= ( + X4 71 ) X3 )  ( <= ( + Y3 86 ) Y4 )  ( <= ( + Y4 20 ) Y3 )  )
( or ( <= ( + X3 64 ) X5 )  ( <= ( + X5 81 ) X3 )  ( <= ( + Y3 86 ) Y5 )  ( <= ( + Y5 30 ) Y3 )  )
( or ( <= ( + X4 71 ) X5 )  ( <= ( + X5 81 ) X4 )  ( <= ( + Y4 20 ) Y5 )  ( <= ( + Y5 30 ) Y4 )  )
( >= X0 0)
( <= ( + X0 43) Z)
( >= Y0 0)
( <= ( + Y0 95 ) 100)
( >= X1 0)
( <= ( + X1 54) Z)
( >= Y1 0)
( <= ( + Y1 25 ) 100)
( >= X2 0)
( <= ( + X2 70) Z)
( >= Y2 0)
( <= ( + Y2 71 ) 100)
( >= X3 0)
( <= ( + X3 64) Z)
( >= Y3 0)
( <= ( + Y3 86 ) 100)
( >= X4 0)
( <= ( + X4 71) Z)
( >= Y4 0)
( <= ( + Y4 20 ) 100)
( >= X5 0)
( <= ( + X5 81) Z)
( >= Y5 0)
( <= ( + Y5 30 ) 100)
) )
(minimize Z)
(check-sat)
